NAME: random_30_4
TYPE: TSP
COMMENT: random_30_4
DIMENSION: 30
EDGE_WEIGHT_TYPE: EUC_2D
NODE_COORD_SECTION
1 90 223
2 438 389
3 268 217
4 276 423
5 442 408
6 450 198
7 97 485
8 164 362
9 343 122
10 380 298
11 379 365
12 13 30
13 27 214
14 489 154
15 182 98
16 208 369
17 495 288
18 446 242
19 158 378
20 441 208
21 265 226
22 376 349
23 217 270
24 493 209
25 423 112
26 489 340
27 211 166
28 158 191
29 107 159
30 300 493
